53 64 370
1 9
6 10
38 48
16 8
8 34
23 12
23 34
46 47
19 39
41 14
20 13
32 0
46 45
25 30
41 39
5 41
49 4
1 26
16 42
46 44
7 3
34 45
40 8
5 47
4 38
45 24
16 47
13 22
13 13
45 48
46 8
15 0
42 33
22 41
32 3
15 7
18 34
17 33
31 38
10 22
38 3
28 37
46 8
33 0
1 25
7 26
5 42
48 30
20 0
39 38
1 13
12 23
35 42
